c Sudoku solution
p cnf 729 0
211 0
244 0
268 0
297 0
346 0
357 0
439 0
477 0
493 0
525 0
559 0
598 0
654 0
663 0
729 0
736 0
753 0
143 0
761 0
151 0
794 0
824 0
964 0
835 0
858 0
899 0
949 0
927 0
931 0
973 0
813 0
533 0
232 0
255 0
745 0
787 0
465 0
988 0
995 0
772 0
718 0
912 0
956 0
452 0
566 0
622 0
421 0
638 0
448 0
137 0
334 0
842 0
867 0
582 0
192 0
391 0
169 0
362 0
319 0
115 0
696 0
484 0
571 0
416 0
514 0
617 0
547 0
641 0
876 0
881 0
174 0
186 0
279 0
378 0
385 0
283 0
128 0
226 0
323 0
675 0
689 0
